190708 688688
193004 683004
195524 683004
200900 686000
200900 686364
201572 685692
201572 686000
201572 686364
349356 786128
350588 785820
746592 999152
568820 1000188
352716 754544
354900 754544
355068 757904
357504 758268
357588 754236
357616 754544
359380 757904
360220 757596
360472 757904
361788 756560
361872 749840
361872 750204
361872 750512
362040 751548
362208 749532
362236 749168
362376 750876
362376 751184
362376 752220
362768 756560
362852 749840
362852 750204
362852 750512
362908 748188
363048 748496
363048 749532
363076 749168
235928 338940
235928 339248
235928 339612
236040 343644
236040 347004
236040 347312
236040 347676
236040 347984
236040 348348
236040 348656
236040 349328
236488 342608
236488 350000
236712 339612
236824 343644
236824 347004
236824 347312
236824 347676
236824 347984
236824 349328
236908 338940
236908 339248
236908 348348
237020 348656
243208 339920
243460 340284
243768 339612
244020 341264
244356 339920
244440 340284
246484 339248
